benchmarks/bfuzz0/84489373119313883687420824598413749.smt2
(set-logic QF_FP)
(declare-const x0 (_ FloatingPoint 8 24))
(declare-const x1 (_ FloatingPoint 8 24))
(declare-const x2 (_ FloatingPoint 8 24))
(declare-const x3 (_ FloatingPoint 8 24))
(declare-const x4 (_ FloatingPoint 8 24))
(declare-const x5 (_ FloatingPoint 8 24))
(declare-const x6 (_ FloatingPoint 8 24))
(declare-const x7 (_ FloatingPoint 8 24))
(declare-const x8 (_ FloatingPoint 8 24))
(declare-const x9 (_ FloatingPoint 8 24))
(assert (fp.leq (fp.add RNE x7 x9) (fp.mul RNE x7 x9)))
(assert (fp.eq (fp.neg x4) (fp.sub RNE x9 x1)))
(assert (fp.gt (fp.mul RNE x3 x4) (fp.mul RNE x9 x8)))
(check-sat)
