db/data/84489373119313883687420824598413749.z3.out
sat
-------------------
.697516239
